% demand
num_movements = 16;
loading_factor = [1150, 1850, 1150, 1900, 950, 900, 1950, 1050, 1600, 1250, 850, 1050, 1150, 1700, 950, 900];
pickup_time = [0, 0, 0, 1, 2, 6, 6, 6, 6, 6, 7, 7, 7, 8, 8, 8];
delivery_time = [6, 6, 6, 6, 6, 11, 7, 7, 7, 7, 10, 8, 11, 10, 11, 11];

% transporter definition
total_capacity = 7000;
num_decks = 3;
capacity = [3000, 1000, 3000];

% ways out of decks
num_ways_out = 1;
paths_out = array3d(decks, ways_out, decks, [
% ways out of deck d1
2, 3, 0, 

% ways out of deck d2
3, 0, 0, 

% ways out of deck d3
0, 0, 0,	

]);

